set VV := 0 1 2 3 4 5 6 7 8 9 10 11 12 13 14 15 16 17 18 19 20 21 22 23 24 25 26 27 28 29 30 31 32 33 34 35 36 37 38 39 40 ;
set VS := 0 1 2 3 4 5 6 7 8 9 10 11 12 13 14 15 16 17 18 19 20 21 22 23 24 25 26 27 28 29 30 31 32 33 34 35 36 37 38 39 40 41 42 43 44 45 46 47 48 49 50 51 52 53 54 55 56 57 58 59 60 61 62 63 64 65 66 67 68 69 70 71 72 73 74 75 76 77 78 79 80 81 82 83 84 85 86 ;
param cv := 
0 12
1 14
2 12
3 17
4 10
5 14
6 10
7 14
8 19
9 20
10 12
11 25
12 20
13 11
14 12
15 19
16 24
17 25
18 25
19 24
20 23
21 12
22 16
23 23
24 19
25 18
26 17
27 15
28 18
29 19
30 23
31 23
32 14
33 11
34 21
35 11
36 10
37 23
38 13
39 21
40 16
;
param cs := 
0 39
1 39
2 38
3 34
4 27
5 23
6 25
7 36
8 22
9 21
10 37
11 30
12 40
13 32
14 38
15 35
16 29
17 21
18 37
19 21
20 34
21 38
22 35
23 29
24 38
25 31
26 30
27 25
28 40
29 27
30 40
31 23
32 20
33 35
34 21
35 28
36 21
37 32
38 27
39 28
40 31
41 36
42 30
43 38
44 40
45 35
46 28
47 33
48 24
49 24
50 20
51 32
52 38
53 40
54 39
55 24
56 32
57 30
58 29
59 30
60 26
61 22
62 20
63 40
64 38
65 35
66 29
67 36
68 39
69 24
70 20
71 22
72 23
73 20
74 30
75 30
76 21
77 40
78 34
79 22
80 24
81 20
82 22
83 36
84 34
85 29
86 38
;
param bv:	 0 1 2 3 4 5 6 7 8 9 10 11 12 13 14 15 16 17 18 19 20 21 22 23 24 25 26 27 28 29 30 31 32 33 34 35 36 37 38 39 40 := 
		0 0 0 23 0 0 0 0 0 0 0 0 0 0 0 0 18 0 0 0 0 0 0 0 0 0 0 0 0 0 0 0 0 0 0 0 0 0 0 0 0 0 
		1 0 0 22 0 0 0 0 0 0 0 0 0 0 0 0 23 0 0 0 0 0 0 0 19 25 0 13 15 0 0 0 0 0 0 17 0 0 0 0 0 0 
		2 0 0 0 0 0 0 0 0 0 0 0 0 0 0 0 0 0 16 0 0 0 0 0 0 18 0 0 0 0 0 0 0 0 0 0 0 15 0 0 0 0 
		3 0 0 0 0 0 0 0 0 0 0 0 0 0 0 0 0 0 0 0 0 0 0 16 0 0 0 0 0 0 0 0 0 0 0 0 0 0 11 0 0 0 
		4 0 0 0 0 0 18 0 0 0 0 0 15 14 0 0 0 0 0 0 0 19 0 0 0 0 0 0 0 0 0 0 0 0 0 0 0 0 0 0 0 11 
		5 0 0 0 0 0 0 0 0 0 0 0 23 0 21 0 13 0 0 0 0 0 0 0 0 0 0 0 0 0 0 0 0 0 0 0 0 0 0 0 0 19 
		6 0 0 0 0 0 0 0 0 0 0 0 0 0 0 0 0 0 0 0 0 0 0 0 0 0 0 0 0 0 0 0 0 0 0 15 0 0 0 0 12 0 
		7 0 0 0 0 0 0 0 0 0 0 0 12 0 0 0 24 0 0 0 0 0 23 0 0 0 0 0 0 0 0 0 0 0 0 0 0 0 0 0 0 0 
		8 0 0 0 0 0 0 0 0 0 0 0 21 0 0 0 0 0 0 0 10 0 0 17 0 0 0 0 0 0 0 0 0 0 0 0 0 12 0 0 0 0 
		9 0 0 0 0 0 0 0 0 0 0 0 0 0 0 19 0 0 0 17 0 0 0 0 22 0 0 0 0 0 0 0 0 0 0 23 0 0 0 0 0 0 
		10 0 0 0 0 0 0 0 0 0 0 0 0 0 14 0 0 0 0 0 0 0 0 0 0 0 0 0 0 0 0 0 0 0 15 22 0 0 0 0 0 0 
		11 0 0 0 0 0 0 0 0 0 0 0 0 0 0 0 0 0 0 0 0 0 0 11 0 13 0 0 0 0 14 0 0 0 14 0 0 0 0 0 0 0 
		12 0 0 0 0 0 0 0 0 0 0 0 0 0 10 0 0 0 0 0 0 19 0 0 0 0 0 10 0 0 0 0 0 0 0 17 0 0 0 19 13 0 
		13 0 0 0 0 0 0 0 0 0 0 0 0 0 0 0 0 0 0 0 18 0 0 0 0 0 25 0 0 0 0 0 0 0 0 0 0 0 0 16 0 0 
		14 0 0 0 0 0 0 0 0 0 0 0 0 0 0 0 0 0 0 0 16 0 0 0 0 0 0 0 0 0 0 0 0 0 0 0 0 0 0 0 0 0 
		15 0 0 0 0 0 0 0 0 0 0 0 0 0 0 0 0 0 19 0 0 0 0 0 0 0 18 0 0 0 0 0 0 0 0 0 0 0 13 0 0 0 
		16 0 0 0 0 0 0 0 0 0 0 0 0 0 0 0 0 0 0 16 0 16 0 0 0 0 0 0 0 0 0 0 0 0 0 0 0 0 0 0 15 0 
		17 0 0 0 0 0 0 0 0 0 0 0 0 0 0 0 0 0 0 0 0 0 0 0 14 0 0 0 0 0 0 0 0 0 0 0 0 0 0 0 0 0 
		18 0 0 0 0 0 0 0 0 0 0 0 0 0 0 0 0 0 0 0 0 0 0 0 0 0 0 0 0 0 0 0 0 0 0 0 0 0 0 0 0 0 
		19 0 0 0 0 0 0 0 0 0 0 0 0 0 0 0 0 0 0 0 0 0 0 0 0 19 12 0 0 0 0 0 0 0 0 0 0 17 0 0 0 0 
		20 0 0 0 0 0 0 0 0 0 0 0 0 0 0 0 0 0 0 0 0 0 0 0 0 0 0 0 0 24 11 0 0 0 0 0 0 0 0 0 0 0 
		21 0 0 0 0 0 0 0 0 0 0 0 0 0 0 0 0 0 0 0 0 0 0 0 17 0 0 0 0 0 24 0 0 0 24 0 21 0 0 16 0 0 
		22 0 0 0 0 0 0 0 0 0 0 0 0 0 0 0 0 0 0 0 0 0 0 0 0 0 0 0 0 14 0 0 0 0 0 0 0 0 0 0 0 0 
		23 0 0 0 0 0 0 0 0 0 0 0 0 0 0 0 0 0 0 0 0 0 0 0 0 0 0 24 0 16 0 0 10 0 0 0 0 0 0 0 0 0 
		24 0 0 0 0 0 0 0 0 0 0 0 0 0 0 0 0 0 0 0 0 0 0 0 0 0 23 16 0 0 0 0 0 0 0 0 0 0 0 15 0 0 
		25 0 0 0 0 0 0 0 0 0 0 0 0 0 0 0 0 0 0 0 0 0 0 0 0 0 0 0 0 18 24 0 0 0 0 0 0 0 0 0 0 0 
		26 0 0 0 0 0 0 0 0 0 0 0 0 0 0 0 0 0 0 0 0 0 0 0 0 0 0 0 20 0 11 0 0 0 0 0 0 0 0 22 0 0 
		27 0 0 0 0 0 0 0 0 0 0 0 0 0 0 0 0 0 0 0 0 0 0 0 0 0 0 0 0 17 0 0 0 0 0 0 0 0 0 0 14 0 
		28 0 0 0 0 0 0 0 0 0 0 0 0 0 0 0 0 0 0 0 0 0 0 0 0 0 0 0 0 0 13 0 0 0 0 0 0 0 0 0 0 0 
		29 0 0 0 0 0 0 0 0 0 0 0 0 0 0 0 0 0 0 0 0 0 0 0 0 0 0 0 0 0 0 0 0 11 0 0 0 0 0 0 0 0 
		30 0 0 0 0 0 0 0 0 0 0 0 0 0 0 0 0 0 0 0 0 0 0 0 0 0 0 0 0 0 0 0 0 0 0 0 0 0 0 0 0 13 
		31 0 0 0 0 0 0 0 0 0 0 0 0 0 0 0 0 0 0 0 0 0 0 0 0 0 0 0 0 0 0 0 0 0 0 0 0 0 0 0 0 0 
		32 0 0 0 0 0 0 0 0 0 0 0 0 0 0 0 0 0 0 0 0 0 0 0 0 0 0 0 0 0 0 0 0 0 0 0 0 0 0 0 0 0 
		33 0 0 0 0 0 0 0 0 0 0 0 0 0 0 0 0 0 0 0 0 0 0 0 0 0 0 0 0 0 0 0 0 0 0 0 0 0 0 0 0 0 
		34 0 0 0 0 0 0 0 0 0 0 0 0 0 0 0 0 0 0 0 0 0 0 0 0 0 0 0 0 0 0 0 0 0 0 0 0 19 0 0 0 0 
		35 0 0 0 0 0 0 0 0 0 0 0 0 0 0 0 0 0 0 0 0 0 0 0 0 0 0 0 0 0 0 0 0 0 0 0 0 0 0 0 0 0 
		36 0 0 0 0 0 0 0 0 0 0 0 0 0 0 0 0 0 0 0 0 0 0 0 0 0 0 0 0 0 0 0 0 0 0 0 0 0 0 0 0 0 
		37 0 0 0 0 0 0 0 0 0 0 0 0 0 0 0 0 0 0 0 0 0 0 0 0 0 0 0 0 0 0 0 0 0 0 0 0 0 0 0 0 0 
		38 0 0 0 0 0 0 0 0 0 0 0 0 0 0 0 0 0 0 0 0 0 0 0 0 0 0 0 0 0 0 0 0 0 0 0 0 0 0 0 16 0 
		39 0 0 0 0 0 0 0 0 0 0 0 0 0 0 0 0 0 0 0 0 0 0 0 0 0 0 0 0 0 0 0 0 0 0 0 0 0 0 0 0 0 
		40 0 0 0 0 0 0 0 0 0 0 0 0 0 0 0 0 0 0 0 0 0 0 0 0 0 0 0 0 0 0 0 0 0 0 0 0 0 0 0 0 0 
;
param bs:	 0 1 2 3 4 5 6 7 8 9 10 11 12 13 14 15 16 17 18 19 20 21 22 23 24 25 26 27 28 29 30 31 32 33 34 35 36 37 38 39 40 41 42 43 44 45 46 47 48 49 50 51 52 53 54 55 56 57 58 59 60 61 62 63 64 65 66 67 68 69 70 71 72 73 74 75 76 77 78 79 80 81 82 83 84 85 86 := 
		0 0 39 0 0 37 29 0 28 0 0 0 33 0 0 0 33 0 0 0 0 0 0 0 0 0 0 0 0 0 0 29 0 0 0 0 0 0 0 0 0 0 0 0 0 0 0 0 29 0 0 0 0 0 0 0 0 0 21 0 0 0 0 0 0 0 0 0 0 21 0 0 37 0 0 0 0 26 36 0 0 0 0 0 0 0 0 0 
		1 39 0 0 0 0 0 0 0 0 0 0 36 0 0 0 24 0 0 23 0 0 0 39 0 35 0 21 0 0 0 0 0 34 0 0 0 0 0 0 0 0 0 0 40 0 0 40 0 22 0 0 32 0 0 0 0 37 0 0 0 0 26 38 0 0 0 0 0 0 0 0 0 0 0 0 0 0 0 0 0 0 0 0 0 30 0 0 
		2 0 0 0 0 0 0 0 26 0 0 0 0 27 0 0 0 0 0 0 0 0 0 26 0 0 0 0 0 23 0 0 0 0 0 0 38 0 0 0 27 39 0 0 0 0 0 0 0 0 28 0 0 0 0 0 0 0 0 0 0 0 0 0 0 0 0 0 0 0 0 0 36 31 0 0 0 32 0 0 0 0 0 33 0 0 0 0 
		3 0 0 0 0 0 0 0 0 0 0 0 0 0 0 0 0 0 0 0 0 0 0 0 0 0 0 0 0 0 0 27 0 23 0 0 0 0 0 0 24 0 28 0 0 0 0 0 40 0 0 0 0 0 0 0 0 0 0 0 24 0 0 0 0 0 0 0 0 0 0 0 0 0 0 0 0 0 0 0 0 0 0 0 0 0 0 0 
		4 37 0 0 0 0 0 0 0 0 0 0 35 31 28 0 0 0 0 35 0 0 0 0 0 36 0 34 24 0 0 0 0 0 0 0 0 0 0 0 0 0 0 0 0 0 0 0 0 0 0 0 0 0 0 34 0 0 0 0 0 0 0 0 0 0 0 0 0 34 0 0 0 0 0 0 30 0 0 0 0 0 0 0 0 27 0 0 
		5 29 0 0 0 0 0 0 0 0 0 0 0 0 0 31 0 0 35 0 0 0 0 0 0 0 0 0 0 0 28 0 0 0 0 33 0 36 0 0 0 0 0 0 0 0 0 0 0 0 0 27 33 0 0 0 0 0 0 0 0 0 0 0 0 0 0 0 0 0 0 37 0 0 0 0 0 0 0 0 0 0 0 0 35 0 0 0 
		6 0 0 0 0 0 0 0 0 0 0 0 0 0 0 0 0 0 0 0 0 0 0 0 0 37 0 0 0 0 0 0 0 0 0 0 0 0 0 0 0 0 0 0 0 24 0 0 0 0 0 0 0 0 0 0 0 0 0 0 0 0 0 0 0 0 0 0 0 0 0 0 0 0 0 0 0 0 0 0 32 23 0 0 0 0 34 33 
		7 28 0 26 0 0 0 0 0 0 33 0 0 0 0 0 0 33 0 0 0 0 0 0 0 0 0 0 0 0 0 0 0 0 0 0 0 31 0 0 0 0 0 40 0 0 0 0 22 37 0 0 0 0 39 0 0 0 28 0 0 0 0 0 0 0 0 0 0 0 0 0 0 30 0 0 0 0 0 0 0 33 0 0 0 0 0 24 
		8 0 0 0 0 0 0 0 0 0 0 0 0 0 0 0 0 38 0 0 0 0 0 24 0 0 0 0 0 0 0 0 0 0 0 0 0 0 0 0 0 0 0 0 0 0 0 29 0 0 0 0 0 0 0 0 24 0 21 0 0 0 0 0 23 0 28 0 0 0 0 0 0 26 0 0 0 0 0 0 0 0 33 0 0 0 0 0 
		9 0 0 0 0 0 0 0 33 0 0 30 0 0 0 0 0 0 0 0 0 0 0 23 0 0 0 0 0 0 0 0 0 0 25 0 0 0 0 0 0 0 0 0 0 0 37 0 21 0 0 0 0 0 0 0 0 30 0 0 0 0 0 0 0 0 0 0 0 0 0 0 0 0 0 0 0 0 0 0 0 0 0 0 0 0 0 0 
		10 0 0 0 0 0 0 0 0 0 30 0 0 0 0 0 0 0 0 0 0 0 0 0 0 0 0 0 0 0 0 0 0 0 0 0 0 0 0 0 0 0 31 0 0 0 0 0 0 0 0 0 0 0 0 0 0 0 24 0 0 0 38 0 0 0 0 0 0 0 0 0 0 0 0 0 0 0 0 0 0 31 27 0 0 0 0 0 
		11 33 36 0 0 35 0 0 0 0 0 0 0 0 28 0 0 0 0 0 0 0 0 0 34 23 0 0 37 0 0 0 0 0 0 0 0 0 0 0 29 0 0 0 0 26 0 0 0 0 0 0 0 0 0 0 0 0 0 0 22 0 0 0 0 0 0 0 0 0 34 0 0 0 0 0 0 0 0 0 0 35 0 0 0 0 0 0 
		12 0 0 27 0 31 0 0 0 0 0 0 0 0 30 0 35 0 0 0 0 0 0 0 0 0 28 0 0 0 0 0 35 0 0 0 38 0 0 0 0 0 0 22 0 28 0 0 0 0 38 0 0 29 0 0 0 0 35 0 0 40 0 25 0 0 21 0 0 0 0 0 0 0 0 0 0 0 0 0 0 0 0 0 0 0 0 0 
		13 0 0 0 0 28 0 0 0 0 0 0 28 30 0 0 0 0 0 0 0 0 0 0 0 0 0 20 37 0 0 0 0 0 0 25 0 0 0 0 0 0 0 0 0 22 0 0 0 0 0 28 0 0 36 0 0 0 0 24 0 0 0 0 0 0 0 0 0 0 0 0 0 0 0 30 0 0 0 0 22 0 0 0 0 0 0 0 
		14 0 0 0 0 0 31 0 0 0 0 0 0 0 0 0 0 0 0 21 0 0 0 0 0 31 0 0 0 0 32 0 0 0 0 0 29 0 0 0 0 0 0 0 0 0 0 32 0 0 0 0 0 0 0 0 0 0 0 0 0 0 0 0 0 33 0 0 0 0 0 0 0 0 0 24 35 21 0 0 0 38 0 0 0 0 0 0 
		15 33 24 0 0 0 0 0 0 0 0 0 0 35 0 0 0 0 0 0 0 0 0 0 0 0 0 0 0 0 0 0 0 0 0 0 0 27 0 0 0 0 0 0 0 25 0 0 0 0 36 0 38 0 0 0 33 0 0 0 24 40 39 0 36 0 27 0 0 0 20 28 0 0 0 0 0 0 0 0 0 0 0 0 35 0 0 0 
		16 0 0 0 0 0 0 0 33 38 0 0 0 0 0 0 0 0 0 28 0 0 0 0 0 0 0 0 0 0 0 0 0 0 33 0 22 0 0 0 39 0 0 0 0 0 0 0 20 0 30 0 0 0 0 0 0 22 32 0 0 0 0 0 29 0 0 0 23 0 0 0 0 0 0 0 0 0 0 0 0 0 0 0 0 0 0 0 
		17 0 0 0 0 0 35 0 0 0 0 0 0 0 0 0 0 0 0 0 0 0 0 0 0 20 0 0 0 0 32 0 0 0 0 0 0 0 0 0 0 0 0 0 0 0 0 0 0 0 0 0 0 0 0 0 0 0 0 39 0 0 35 0 0 39 0 0 0 29 0 0 0 0 0 0 23 0 0 0 0 0 0 0 0 0 21 0 
		18 0 23 0 0 35 0 0 0 0 0 0 0 0 0 21 0 28 0 0 0 0 0 36 0 0 38 0 36 0 27 0 0 0 30 0 0 0 0 0 0 0 0 0 0 0 0 0 0 0 0 0 0 0 0 20 0 0 0 0 0 0 0 0 0 0 0 0 0 0 0 0 0 0 26 0 0 0 0 0 0 0 27 0 0 0 21 0 
		19 0 0 0 0 0 0 0 0 0 0 0 0 0 0 0 0 0 0 0 0 0 0 0 0 0 0 0 0 0 0 0 0 0 0 0 0 0 0 0 0 0 0 25 0 0 0 0 0 0 0 0 0 22 0 0 0 0 0 33 0 0 0 0 0 0 39 0 0 0 0 0 0 0 0 0 0 0 0 0 0 0 0 0 0 0 0 31 
		20 0 0 0 0 0 0 0 0 0 0 0 0 0 0 0 0 0 0 0 0 0 0 0 0 0 0 0 0 0 26 0 0 0 0 0 24 0 0 0 0 0 0 0 0 0 0 0 0 0 0 0 0 0 0 0 0 0 36 20 0 0 0 0 0 0 0 0 0 0 0 0 0 0 0 0 0 36 0 0 0 0 0 0 0 0 0 0 
		21 0 0 0 0 0 0 0 0 0 0 0 0 0 0 0 0 0 0 0 0 0 0 0 0 0 0 0 0 0 0 0 0 0 0 0 0 0 0 0 0 0 0 40 0 0 0 0 0 0 0 0 0 26 21 27 0 0 0 0 0 25 0 0 0 0 0 28 0 0 0 0 0 27 0 0 0 0 0 0 0 0 0 0 0 31 0 0 
		22 0 39 26 0 0 0 0 0 24 23 0 0 0 0 0 0 0 0 36 0 0 0 0 0 0 0 0 0 0 0 0 0 0 20 0 0 0 0 0 0 0 0 0 0 32 0 0 0 0 0 0 0 0 0 0 0 0 0 0 0 0 0 0 0 0 0 0 0 0 0 0 0 0 0 0 0 0 0 0 0 0 0 0 0 0 0 0 
		23 0 0 0 0 0 0 0 0 0 0 0 34 0 0 0 0 0 0 0 0 0 0 0 0 0 0 0 0 0 0 0 0 0 0 0 0 0 0 0 0 39 0 24 0 0 0 0 0 0 0 0 0 0 23 0 0 0 0 0 0 0 0 0 0 0 0 0 0 0 0 0 32 0 0 0 0 0 0 0 0 0 0 0 0 0 0 0 
		24 0 35 0 0 36 0 37 0 0 0 0 23 0 0 31 0 0 20 0 0 0 0 0 0 0 0 21 23 0 31 0 0 0 0 0 0 0 0 0 26 0 0 0 0 0 0 0 0 0 0 0 0 0 0 0 0 27 0 0 29 34 0 0 0 0 0 0 0 0 0 0 0 0 26 0 0 0 0 0 0 0 0 26 0 0 0 0 
		25 0 0 0 0 0 0 0 0 0 0 0 0 28 0 0 0 0 0 38 0 0 0 0 0 0 0 0 0 0 34 0 0 0 0 0 0 0 21 33 0 0 0 0 0 0 0 0 0 0 0 0 0 0 0 0 29 0 0 0 0 0 0 0 0 0 0 0 22 0 0 0 0 0 0 0 0 0 0 0 0 37 0 0 0 0 0 0 
		26 0 21 0 0 34 0 0 0 0 0 0 0 0 20 0 0 0 0 0 0 0 0 0 0 21 0 0 0 0 0 0 0 0 0 0 0 0 0 0 0 0 0 0 0 0 28 20 0 0 0 0 0 0 0 0 0 0 0 0 0 0 0 0 0 0 27 0 0 0 0 0 0 0 0 0 0 24 0 0 0 0 0 0 26 0 25 36 
		27 0 0 0 0 24 0 0 0 0 0 0 37 0 37 0 0 0 0 36 0 0 0 0 0 23 0 0 0 0 0 0 0 0 20 0 0 0 0 0 0 0 0 0 0 0 0 0 0 0 0 0 0 0 0 0 21 32 0 0 0 0 0 0 0 0 0 0 0 0 0 0 0 0 0 0 29 0 0 0 0 0 0 0 0 0 0 0 
		28 0 0 23 0 0 0 0 0 0 0 0 0 0 0 0 0 0 0 0 0 0 0 0 0 0 0 0 0 0 0 0 0 0 0 0 0 0 0 0 35 0 0 0 0 0 0 0 0 0 0 0 0 0 0 0 0 0 0 0 0 0 0 0 0 0 0 0 0 0 0 0 0 0 0 0 0 0 0 0 0 0 0 0 0 0 0 0 
		29 0 0 0 0 0 28 0 0 0 0 0 0 0 0 32 0 0 32 27 0 26 0 0 0 31 34 0 0 0 0 0 0 0 0 0 0 0 0 0 35 0 0 0 27 0 0 0 0 0 0 0 0 0 0 0 0 0 0 0 0 0 0 0 0 0 0 0 0 0 0 0 0 0 0 0 0 26 26 0 0 34 0 0 0 0 0 0 
		30 29 0 0 27 0 0 0 0 0 0 0 0 0 0 0 0 0 0 0 0 0 0 0 0 0 0 0 0 0 0 0 0 0 0 0 0 0 0 0 0 0 0 30 0 0 38 0 39 0 28 33 35 0 0 0 0 0 0 0 40 0 0 0 0 0 0 32 0 0 0 0 0 0 0 0 0 21 0 0 0 0 20 0 0 0 0 0 
		31 0 0 0 0 0 0 0 0 0 0 0 0 35 0 0 0 0 0 0 0 0 0 0 0 0 0 0 0 0 0 0 0 0 0 0 0 32 0 0 0 0 0 28 0 0 0 0 0 0 0 0 0 0 0 0 0 0 0 0 0 0 0 0 33 0 33 0 0 37 0 0 0 0 0 0 0 32 0 0 0 0 0 0 0 0 0 0 
		32 0 34 0 23 0 0 0 0 0 0 0 0 0 0 0 0 0 0 0 0 0 0 0 0 0 0 0 0 0 0 0 0 0 0 25 0 0 0 0 0 0 0 0 0 0 0 0 0 0 0 0 0 0 0 39 0 0 37 0 0 30 0 0 0 0 0 0 0 0 24 0 0 0 37 0 29 0 0 0 0 0 38 0 0 0 0 0 
		33 0 0 0 0 0 0 0 0 0 25 0 0 0 0 0 0 33 0 30 0 0 0 20 0 0 0 0 20 0 0 0 0 0 0 0 0 0 0 0 0 0 0 0 0 0 0 0 0 0 0 0 0 0 0 39 0 0 0 0 0 0 0 0 0 0 0 0 0 0 0 0 0 0 0 0 0 38 0 0 0 0 25 0 0 0 0 0 
		34 0 0 0 0 0 33 0 0 0 0 0 0 0 25 0 0 0 0 0 0 0 0 0 0 0 0 0 0 0 0 0 0 25 0 0 36 0 0 0 0 0 0 0 0 0 0 0 0 0 0 25 39 0 0 0 0 0 0 0 32 23 0 30 0 0 0 23 0 0 37 0 0 0 0 0 0 0 0 0 0 0 38 34 31 0 0 0 
		35 0 0 38 0 0 0 0 0 0 0 0 0 38 0 29 0 22 0 0 0 24 0 0 0 0 0 0 0 0 0 0 0 0 0 36 0 0 0 0 0 21 0 0 0 0 0 0 0 0 0 0 0 0 0 0 0 0 0 29 0 0 0 0 0 0 0 40 0 0 0 0 0 0 0 0 0 38 0 0 0 0 0 0 0 20 0 40 
		36 0 0 0 0 0 36 0 31 0 0 0 0 0 0 0 27 0 0 0 0 0 0 0 0 0 0 0 0 0 0 0 32 0 0 0 0 0 0 0 0 0 0 0 0 0 0 0 0 0 0 0 0 0 0 0 22 0 0 35 0 35 0 0 28 0 0 24 0 0 0 0 0 38 0 0 0 33 0 0 37 0 0 0 0 23 0 0 
		37 0 0 0 0 0 0 0 0 0 0 0 0 0 0 0 0 0 0 0 0 0 0 0 0 0 21 0 0 0 0 0 0 0 0 0 0 0 0 0 0 0 0 0 0 0 0 0 0 0 0 0 0 0 0 24 0 0 0 32 0 0 0 0 0 0 0 0 0 0 0 0 0 0 0 0 0 0 0 0 0 0 0 0 0 0 0 0 
		38 0 0 0 0 0 0 0 0 0 0 0 0 0 0 0 0 0 0 0 0 0 0 0 0 0 33 0 0 0 0 0 0 0 0 0 0 0 0 0 0 0 0 0 0 0 0 0 0 0 0 0 0 0 0 0 0 0 0 0 0 0 0 0 0 0 0 0 0 0 0 0 0 35 21 0 0 26 26 0 0 0 0 0 0 0 0 0 
		39 0 0 27 24 0 0 0 0 0 0 0 29 0 0 0 0 39 0 0 0 0 0 0 0 26 0 0 0 35 35 0 0 0 0 0 0 0 0 0 0 0 0 0 0 23 0 0 31 0 0 0 0 0 0 0 0 0 0 0 0 29 29 0 0 34 0 0 0 26 0 0 0 0 20 0 0 0 0 0 0 0 0 0 0 0 0 0 
		40 0 0 39 0 0 0 0 0 0 0 0 0 0 0 0 0 0 0 0 0 0 0 0 39 0 0 0 0 0 0 0 0 0 0 0 21 0 0 0 0 0 0 0 38 0 0 0 39 0 0 0 0 0 0 0 0 0 0 0 0 0 0 0 0 0 0 30 0 0 0 0 0 0 0 0 0 38 0 0 0 0 0 0 22 0 0 0 
		41 0 0 0 28 0 0 0 0 0 0 31 0 0 0 0 0 0 0 0 0 0 0 0 0 0 0 0 0 0 0 0 0 0 0 0 0 0 0 0 0 0 0 0 0 0 0 0 0 0 0 0 0 0 0 0 0 0 0 0 0 0 0 0 0 0 0 0 0 25 0 0 0 0 0 0 35 0 0 0 0 0 0 0 0 0 0 0 
		42 0 0 0 0 0 0 0 40 0 0 0 0 22 0 0 0 0 0 0 25 0 40 0 24 0 0 0 0 0 0 30 28 0 0 0 0 0 0 0 0 0 0 0 0 0 0 0 0 0 0 40 0 0 27 0 0 0 0 0 0 0 0 0 0 0 0 0 0 34 0 0 0 0 0 0 0 0 0 0 37 0 0 0 0 0 0 0 
		43 0 40 0 0 0 0 0 0 0 0 0 0 0 0 0 0 0 0 0 0 0 0 0 0 0 0 0 0 0 27 0 0 0 0 0 0 0 0 0 0 38 0 0 0 0 0 0 0 0 0 0 0 0 0 38 0 0 0 0 0 0 0 0 0 0 0 0 0 0 0 0 0 0 0 0 0 0 40 0 0 0 0 28 0 0 0 0 
		44 0 0 0 0 0 0 24 0 0 0 0 26 28 22 0 25 0 0 0 0 0 0 32 0 0 0 0 0 0 0 0 0 0 0 0 0 0 0 0 23 0 0 0 0 0 20 0 0 0 21 24 0 0 0 0 39 0 0 0 33 0 0 0 0 0 0 35 0 0 0 0 0 0 0 0 0 38 0 0 0 0 27 0 0 23 0 27 
		45 0 0 0 0 0 0 0 0 0 37 0 0 0 0 0 0 0 0 0 0 0 0 0 0 0 0 28 0 0 0 38 0 0 0 0 0 0 0 0 0 0 0 0 0 20 0 22 0 0 0 0 39 0 0 0 0 0 0 0 0 0 0 0 0 22 0 0 0 0 0 0 0 0 0 24 0 0 0 0 0 0 0 0 0 0 31 0 
		46 0 40 0 0 0 0 0 0 29 0 0 0 0 0 32 0 0 0 0 0 0 0 0 0 0 0 20 0 0 0 0 0 0 0 0 0 0 0 0 0 0 0 0 0 0 22 0 26 0 0 0 0 0 0 0 0 0 0 0 0 0 0 0 0 0 0 0 0 0 0 0 0 27 0 0 0 0 36 0 0 0 32 0 0 0 0 0 
		47 29 0 0 40 0 0 0 22 0 21 0 0 0 0 0 0 20 0 0 0 0 0 0 0 0 0 0 0 0 0 39 0 0 0 0 0 0 0 0 31 39 0 0 0 0 0 26 0 0 0 0 0 26 0 0 0 0 0 0 0 0 0 0 0 0 0 0 0 0 0 0 0 0 0 0 0 0 0 0 0 0 0 31 0 0 0 0 
		48 0 22 0 0 0 0 0 37 0 0 0 0 0 0 0 0 0 0 0 0 0 0 0 0 0 0 0 0 0 0 0 0 0 0 0 0 0 0 0 0 0 0 0 0 0 0 0 0 0 0 0 0 0 0 0 0 0 0 0 0 0 23 23 0 0 26 0 0 0 0 0 26 0 0 0 0 0 0 0 0 0 0 0 0 0 0 0 
		49 0 0 28 0 0 0 0 0 0 0 0 0 38 0 0 36 30 0 0 0 0 0 0 0 0 0 0 0 0 0 28 0 0 0 0 0 0 0 0 0 0 0 0 0 21 0 0 0 0 0 0 0 0 0 0 25 0 0 0 33 0 0 0 0 0 37 0 0 0 0 0 0 33 0 0 0 0 0 0 0 0 0 0 0 0 0 32 
		50 0 0 0 0 0 27 0 0 0 0 0 0 0 28 0 0 0 0 0 0 0 0 0 0 0 0 0 0 0 0 33 0 0 0 25 0 0 0 0 0 0 0 40 0 24 0 0 0 0 0 0 27 0 0 0 0 0 0 0 0 0 0 0 0 0 0 0 0 0 0 0 0 0 0 0 0 23 0 0 0 0 0 0 0 0 0 0 
		51 0 32 0 0 0 33 0 0 0 0 0 0 0 0 0 38 0 0 0 0 0 0 0 0 0 0 0 0 0 0 35 0 0 0 39 0 0 0 0 0 0 0 0 0 0 39 0 0 0 0 27 0 0 0 0 0 0 0 28 25 0 0 0 0 0 0 0 0 0 0 30 0 0 0 0 0 0 0 0 0 0 0 35 0 0 0 0 
		52 0 0 0 0 0 0 0 0 0 0 0 0 29 0 0 0 0 0 0 22 0 26 0 0 0 0 0 0 0 0 0 0 0 0 0 0 0 0 0 0 0 0 0 0 0 0 0 26 0 0 0 0 0 0 0 0 0 38 0 0 36 0 0 0 0 0 0 0 0 0 0 0 0 0 0 0 30 0 0 0 0 0 0 24 0 0 40 
		53 0 0 0 0 0 0 0 39 0 0 0 0 0 36 0 0 0 0 0 0 0 21 0 23 0 0 0 0 0 0 0 0 0 0 0 0 0 0 0 0 0 0 27 0 0 0 0 0 0 0 0 0 0 0 0 0 0 0 33 0 0 0 0 0 0 0 39 0 0 33 0 0 0 0 0 0 0 0 0 0 0 0 0 0 0 0 32 
		54 0 0 0 0 34 0 0 0 0 0 0 0 0 0 0 0 0 0 20 0 0 27 0 0 0 0 0 0 0 0 0 0 39 39 0 0 0 24 0 0 0 0 0 38 0 0 0 0 0 0 0 0 0 0 0 0 0 0 0 0 0 0 0 0 26 0 0 0 0 0 0 22 0 0 0 31 0 0 0 0 21 0 0 0 0 0 0 
		55 0 0 0 0 0 0 0 0 24 0 0 0 0 0 0 33 0 0 0 0 0 0 0 0 0 29 0 21 0 0 0 0 0 0 0 0 22 0 0 0 0 0 0 0 39 0 0 0 0 25 0 0 0 0 0 0 0 33 0 0 0 0 0 0 0 0 0 36 0 0 0 0 37 0 0 26 28 0 0 0 0 0 0 0 0 0 0 
		56 0 37 0 0 0 0 0 0 0 30 0 0 0 0 0 0 22 0 0 0 0 0 0 0 27 0 0 32 0 0 0 0 0 0 0 0 0 0 0 0 0 0 0 0 0 0 0 0 0 0 0 0 0 0 0 0 0 0 0 0 0 0 33 0 0 0 0 0 0 0 0 0 0 0 0 28 0 0 0 0 0 0 0 0 0 0 0 
		57 21 0 0 0 0 0 0 28 21 0 24 0 35 0 0 0 32 0 0 0 36 0 0 0 0 0 0 0 0 0 0 0 37 0 0 0 0 0 0 0 0 0 0 0 0 0 0 0 0 0 0 0 38 0 0 33 0 0 0 0 0 0 0 0 0 0 0 0 31 0 0 0 0 0 0 0 24 0 0 0 30 0 0 0 0 0 0 
		58 0 0 0 0 0 0 0 0 0 0 0 0 0 24 0 0 0 39 0 33 20 0 0 0 0 0 0 0 0 0 0 0 0 0 0 29 35 32 0 0 0 0 0 0 0 0 0 0 0 0 0 28 0 33 0 0 0 0 0 0 0 0 0 0 0 0 0 0 0 0 0 0 0 0 0 0 0 0 0 0 0 0 0 0 0 0 0 
		59 0 0 0 24 0 0 0 0 0 0 0 22 0 0 0 24 0 0 0 0 0 0 0 0 29 0 0 0 0 0 40 0 0 0 32 0 0 0 0 0 0 0 0 0 33 0 0 0 0 33 0 25 0 0 0 0 0 0 0 0 22 0 0 36 0 38 0 0 0 0 0 0 39 0 0 0 31 0 0 0 0 0 0 0 0 0 0 
		60 0 0 0 0 0 0 0 0 0 0 0 0 40 0 0 40 0 0 0 0 0 25 0 0 34 0 0 0 0 0 0 0 30 0 23 0 35 0 0 29 0 0 0 0 0 0 0 0 0 0 0 0 36 0 0 0 0 0 0 22 0 0 0 0 0 0 0 0 31 0 0 0 33 0 0 0 0 0 0 0 0 0 0 0 26 0 0 
		61 0 26 0 0 0 0 0 0 0 0 38 0 0 0 0 39 0 35 0 0 0 0 0 0 0 0 0 0 0 0 0 0 0 0 0 0 0 0 0 29 0 0 0 0 0 0 0 0 23 0 0 0 0 0 0 0 0 0 0 0 0 0 0 0 0 0 0 0 0 0 0 0 0 0 0 0 0 0 39 0 25 0 0 0 0 0 0 
		62 0 38 0 0 0 0 0 0 0 0 0 0 25 0 0 0 0 0 0 0 0 0 0 0 0 0 0 0 0 0 0 0 0 0 30 0 0 0 0 0 0 0 0 0 0 0 0 0 23 0 0 0 0 0 0 0 33 0 0 0 0 0 0 0 0 0 0 0 0 0 23 0 0 0 23 21 0 0 38 0 0 0 0 0 0 0 0 
		63 0 0 0 0 0 0 0 0 23 0 0 0 0 0 0 36 29 0 0 0 0 0 0 0 0 0 0 0 0 0 0 33 0 0 0 0 28 0 0 0 0 0 0 0 0 0 0 0 0 0 0 0 0 0 0 0 0 0 0 36 0 0 0 0 0 0 0 0 20 0 0 0 0 0 0 0 0 0 0 39 0 0 34 0 0 0 0 
		64 0 0 0 0 0 0 0 0 0 0 0 0 0 0 33 0 0 39 0 0 0 0 0 0 0 0 0 0 0 0 0 0 0 0 0 0 0 0 0 34 0 0 0 0 0 22 0 0 0 0 0 0 0 0 26 0 0 0 0 0 0 0 0 0 0 0 0 0 0 0 0 0 0 0 0 0 0 0 0 0 0 0 40 0 0 0 0 
		65 0 0 0 0 0 0 0 0 28 0 0 0 21 0 0 27 0 0 0 39 0 0 0 0 0 0 27 0 0 0 0 33 0 0 0 0 0 0 0 0 0 0 0 0 0 0 0 0 26 37 0 0 0 0 0 0 0 0 0 38 0 0 0 0 0 0 0 0 0 37 29 0 0 0 0 34 0 0 0 0 0 0 0 0 0 21 0 
		66 0 0 0 0 0 0 0 0 0 0 0 0 0 0 0 0 0 0 0 0 0 28 0 0 0 0 0 0 0 0 32 0 0 0 23 40 24 0 0 0 30 0 0 0 35 0 0 0 0 0 0 0 0 39 0 0 0 0 0 0 0 0 0 0 0 0 0 0 0 0 0 0 0 0 0 0 0 0 0 22 0 0 0 0 0 0 0 
		67 0 0 0 0 0 0 0 0 0 0 0 0 0 0 0 0 23 0 0 0 0 0 0 0 0 22 0 0 0 0 0 0 0 0 0 0 0 0 0 0 0 0 0 0 0 0 0 0 0 0 0 0 0 0 0 36 0 0 0 0 0 0 0 0 0 0 0 0 0 0 0 0 25 40 0 0 0 0 0 0 0 0 0 0 0 34 0 
		68 21 0 0 0 34 0 0 0 0 0 0 0 0 0 0 0 0 29 0 0 0 0 0 0 0 0 0 0 0 0 0 37 0 0 0 0 0 0 0 26 0 25 34 0 0 0 0 0 0 0 0 0 0 0 0 0 0 31 0 0 31 0 0 20 0 0 0 0 0 0 0 0 32 0 0 0 0 0 0 0 0 0 0 0 0 0 0 
		69 0 0 0 0 0 0 0 0 0 0 0 34 0 0 0 20 0 0 0 0 0 0 0 0 0 0 0 0 0 0 0 0 24 0 37 0 0 0 0 0 0 0 0 0 0 0 0 0 0 0 0 0 0 33 0 0 0 0 0 0 0 0 0 0 0 37 0 0 0 0 0 0 0 0 0 0 0 0 0 0 0 0 0 39 0 36 0 
		70 0 0 0 0 0 37 0 0 0 0 0 0 0 0 0 28 0 0 0 0 0 0 0 0 0 0 0 0 0 0 0 0 0 0 0 0 0 0 0 0 0 0 0 0 0 0 0 0 0 0 0 30 0 0 0 0 0 0 0 0 0 0 23 0 0 29 0 0 0 0 0 0 0 0 0 31 0 0 0 0 0 0 0 0 0 0 0 
		71 37 0 36 0 0 0 0 0 0 0 0 0 0 0 0 0 0 0 0 0 0 0 0 32 0 0 0 0 0 0 0 0 0 0 0 0 0 0 0 0 0 0 0 0 0 0 0 0 26 0 0 0 0 0 22 0 0 0 0 0 0 0 0 0 0 0 0 0 0 0 0 0 0 40 0 0 0 0 23 0 0 0 0 0 0 0 0 
		72 0 0 31 0 0 0 0 30 26 0 0 0 0 0 0 0 0 0 0 0 0 27 0 0 0 0 0 0 0 0 0 0 0 0 0 0 38 0 35 0 0 0 0 0 0 0 27 0 0 33 0 0 0 0 0 37 0 0 0 39 33 0 0 0 0 0 0 25 32 0 0 0 0 0 0 0 0 0 0 39 0 0 33 0 0 0 0 
		73 0 0 0 0 0 0 0 0 0 0 0 0 0 0 0 0 0 0 26 0 0 0 0 0 26 0 0 0 0 0 0 0 37 0 0 0 0 0 21 20 0 0 0 0 0 0 0 0 0 0 0 0 0 0 0 0 0 0 0 0 0 0 0 0 0 0 0 40 0 0 0 40 0 0 0 0 0 21 0 0 0 0 0 0 0 0 0 
		74 0 0 0 0 0 0 0 0 0 0 0 0 0 30 24 0 0 0 0 0 0 0 0 0 0 0 0 0 0 0 0 0 0 0 0 0 0 0 0 0 0 0 0 0 0 24 0 0 0 0 0 0 0 0 0 0 0 0 0 0 0 0 23 0 0 0 0 0 0 0 0 0 0 0 0 0 0 0 0 0 0 0 0 0 0 0 0 
		75 0 0 0 0 30 0 0 0 0 0 0 0 0 0 35 0 0 23 0 0 0 0 0 0 0 0 0 29 0 0 0 0 29 0 0 0 0 0 0 0 0 35 0 0 0 0 0 0 0 0 0 0 0 0 31 26 28 0 0 0 0 0 21 0 0 34 0 0 0 0 31 0 0 0 0 0 39 0 0 0 34 0 23 0 28 0 0 
		76 26 0 32 0 0 0 0 0 0 0 0 0 0 0 21 0 0 0 0 0 36 0 0 0 0 0 24 0 0 26 21 32 0 38 0 38 33 0 26 0 38 0 0 0 38 0 0 0 0 0 23 0 30 0 0 28 0 24 0 31 0 0 0 0 0 0 0 0 0 0 0 0 0 0 0 39 0 0 0 0 0 0 27 0 0 0 0 
		77 36 0 0 0 0 0 0 0 0 0 0 0 0 0 0 0 0 0 0 0 0 0 0 0 0 0 0 0 0 26 0 0 0 0 0 0 0 0 26 0 0 0 0 40 0 0 36 0 0 0 0 0 0 0 0 0 0 0 0 0 0 0 0 0 0 0 0 0 0 0 0 0 0 21 0 0 0 0 0 0 0 0 0 0 0 0 0 
		78 0 0 0 0 0 0 0 0 0 0 0 0 0 0 0 0 0 0 0 0 0 0 0 0 0 0 0 0 0 0 0 0 0 0 0 0 0 0 0 0 0 0 0 0 0 0 0 0 0 0 0 0 0 0 0 0 0 0 0 0 0 39 38 0 0 0 0 0 0 0 0 23 0 0 0 0 0 0 0 0 0 0 0 27 0 0 0 
		79 0 0 0 0 0 0 32 0 0 0 0 0 0 22 0 0 0 0 0 0 0 0 0 0 0 0 0 0 0 0 0 0 0 0 0 0 37 0 0 0 0 0 37 0 0 0 0 0 0 0 0 0 0 0 0 0 0 0 0 0 0 0 0 39 0 0 22 0 0 0 0 0 39 0 0 0 0 0 0 0 0 0 0 0 31 0 0 
		80 0 0 0 0 0 0 23 33 0 0 31 35 0 0 38 0 0 0 0 0 0 0 0 0 0 37 0 0 0 34 0 0 0 0 0 0 0 0 0 0 0 0 0 0 0 0 0 0 0 0 0 0 0 0 21 0 0 30 0 0 0 25 0 0 0 0 0 0 0 0 0 0 0 0 0 34 0 0 0 0 0 20 0 0 0 0 0 
		81 0 0 0 0 0 0 0 0 33 0 27 0 0 0 0 0 0 0 27 0 0 0 0 0 0 0 0 0 0 0 20 0 38 25 38 0 0 0 0 0 0 0 0 0 27 0 32 0 0 0 0 0 0 0 0 0 0 0 0 0 0 0 0 0 0 0 0 0 0 0 0 0 0 0 0 0 0 0 0 0 20 0 0 0 0 0 0 
		82 0 0 33 0 0 0 0 0 0 0 0 0 0 0 0 0 0 0 0 0 0 0 0 0 26 0 0 0 0 0 0 0 0 0 34 0 0 0 0 0 0 0 0 28 0 0 0 31 0 0 0 35 0 0 0 0 0 0 0 0 0 0 0 34 40 0 0 0 0 0 0 0 33 0 0 23 27 0 0 0 0 0 0 0 0 0 37 
		83 0 0 0 0 0 35 0 0 0 0 0 0 0 0 0 35 0 0 0 0 0 0 0 0 0 0 26 0 0 0 0 0 0 0 31 0 0 0 0 0 22 0 0 0 0 0 0 0 0 0 0 0 24 0 0 0 0 0 0 0 0 0 0 0 0 0 0 0 0 39 0 0 0 0 0 0 0 0 27 0 0 0 0 0 0 0 0 
		84 0 30 0 0 27 0 0 0 0 0 0 0 0 0 0 0 0 0 0 0 0 31 0 0 0 0 0 0 0 0 0 0 0 0 0 20 23 0 0 0 0 0 0 0 23 0 0 0 0 0 0 0 0 0 0 0 0 0 0 0 26 0 0 0 0 0 0 0 0 0 0 0 0 0 0 28 0 0 0 31 0 0 0 0 0 0 0 
		85 0 0 0 0 0 0 34 0 0 0 0 0 0 0 0 0 0 21 21 0 0 0 0 0 0 0 25 0 0 0 0 0 0 0 0 0 0 0 0 0 0 0 0 0 0 31 0 0 0 0 0 0 0 0 0 0 0 0 0 0 0 0 0 0 0 21 0 34 0 36 0 0 0 0 0 0 0 0 0 0 0 0 0 0 0 0 0 
		86 0 0 0 0 0 0 33 24 0 0 0 0 0 0 0 0 0 0 0 31 0 0 0 0 0 0 36 0 0 0 0 0 0 0 0 40 0 0 0 0 0 0 0 0 27 0 0 0 0 32 0 0 40 32 0 0 0 0 0 0 0 0 0 0 0 0 0 0 0 0 0 0 0 0 0 0 0 0 0 0 0 0 37 0 0 0 0 
;
